120 4578.0 5609.0 6486.1 7392.0 8540.0
180 5023.0 5527.0 6505.5 7148.0 9931.0
240 4420.0 5139.0 5722.0 6143.0 7148.0
300 3103.0 5023.0 5523.6 6048.0 8546.0
360 3103.0 3270.0 5084.7 5849.0 8546.0
420 3133.0 3315.0 4758.7 6424.0 7504.0
480 2861.0 3270.0 4409.2 4598.0 7216.0
540 2861.0 3490.0 4116.5 4507.0 6049.0
600 2549.0 3490.0 4111.3 4598.0 6930.0
660 1925.0 2666.0 3542.5 3915.0 6930.0
720 2206.0 2754.0 3441.8 4228.0 5289.0
780 1894.0 2675.0 3598.8 4596.0 6700.0
840 1894.0 2860.0 3569.4 4127.0 5617.0
900 2206.0 2327.0 3515.4 4596.0 5617.0
960 2206.0 2327.0 3101.4 3859.0 4598.0
1020 2202.0 2287.0 3033.3 3592.0 4421.0
1080 2217.0 2277.0 2710.5 2752.0 4421.0
1140 2097.0 2228.0 2684.7 2862.0 4421.0
1200 1995.0 2206.0 2809.9 3270.0 4312.0
1260 1838.0 2082.0 2414.0 2534.0 4065.0
1320 1857.0 2028.0 2484.2 2632.0 3974.0
1380 1187.0 2102.0 2641.5 2632.0 5185.0
1440 1435.0 1700.0 2445.6 3270.0 3632.0
1500 1194.0 1485.0 2280.8 2842.0 4223.0
1560 1449.0 1492.0 2322.7 2842.0 4223.0
1620 1449.0 1518.0 2362.9 2842.0 4321.0
1680 1386.0 1585.0 2472.2 2925.0 4321.0
1740 1386.0 1585.0 2448.8 3071.0 4322.0
1800 1492.0 1585.0 2433.8 2842.0 4322.0
1860 1492.0 1585.0 2426.7 2842.0 4433.0
1920 1492.0 1585.0 2336.0 2842.0 3936.0
1980 1447.0 1585.0 2328.8 2648.0 4223.0
2040 1447.0 1585.0 1975.8 2272.0 3005.0
2100 1447.0 1585.0 1962.0 2275.0 2616.0
2160 1447.0 1585.0 1929.5 2272.0 2302.0
2220 1447.0 1585.0 1963.7 2241.0 2842.0
2280 1447.0 1502.0 1809.4 2225.0 2302.0
2340 1447.0 1514.0 1845.0 2225.0 2505.0
2400 1183.0 1435.0 1626.9 1743.0 2399.0
2460 1057.0 1343.0 1619.0 1884.0 2241.0
2520 976.0 1343.0 1574.8 1992.0 2152.0
2580 976.0 1447.0 1600.8 1992.0 2152.0
2640 976.0 1447.0 1738.2 2152.0 2857.0
2700 947.0 1435.0 1694.9 2241.0 2584.0
2760 947.0 1107.0 1580.9 1866.0 2505.0
2820 762.0 1099.0 1606.8 1921.0 3155.0
2880 762.0 1099.0 1578.9 1880.0 3155.0
2940 947.0 1107.0 1513.9 1880.0 2505.0
3000 947.0 1176.0 1535.6 1880.0 2505.0
3060 947.0 1107.0 1511.5 1880.0 2505.0
3120 947.0 1107.0 1584.5 1897.0 2505.0
3180 947.0 1107.0 1584.5 1897.0 2505.0
3240 947.0 1107.0 1569.0 1897.0 2197.0
3300 853.0 982.0 1439.7 1880.0 2197.0
3360 947.0 1076.0 1392.0 1604.0 2152.0
3420 947.0 1107.0 1444.7 1604.0 2152.0
3480 947.0 1107.0 1485.8 1880.0 2152.0
3540 947.0 1107.0 1393.9 1730.0 2152.0
3600 684.0 982.0 1361.2 1730.0 2152.0
3660 684.0 982.0 1490.3 1897.0 2505.0
3720 684.0 982.0 1519.9 1897.0 2505.0
3780 684.0 982.0 1505.3 1897.0 2505.0
3840 684.0 982.0 1390.5 1880.0 2152.0
3900 684.0 982.0 1433.8 1880.0 2152.0
3960 684.0 982.0 1380.6 1730.0 2152.0
4020 556.0 982.0 1335.4 1730.0 2152.0
4080 556.0 982.0 1186.9 1318.0 2123.0
4140 556.0 888.0 1102.1 1233.0 2123.0
4200 556.0 982.0 1122.8 1233.0 2123.0
4260 556.0 888.0 1111.7 1233.0 2123.0
4320 556.0 793.0 1058.1 1152.0 2123.0
4380 556.0 888.0 1125.0 1318.0 2123.0
4440 556.0 888.0 1085.4 1152.0 2123.0
4500 556.0 888.0 1116.3 1318.0 2123.0
4560 556.0 888.0 1125.9 1318.0 2123.0
4620 556.0 888.0 1085.4 1152.0 2123.0
4680 556.0 888.0 1077.4 1152.0 2123.0
4740 556.0 982.0 1105.9 1152.0 2123.0
4800 556.0 982.0 1106.1 1152.0 2123.0
4860 556.0 951.0 1069.4 1095.0 2123.0
4920 556.0 888.0 1041.3 1020.0 2123.0
4980 556.0 888.0 1086.6 1152.0 2123.0
5040 556.0 888.0 1086.6 1152.0 2123.0
5100 556.0 888.0 1079.6 1152.0 2123.0
5160 556.0 888.0 1116.3 1318.0 2123.0
5220 556.0 982.0 1135.1 1318.0 2123.0
5280 556.0 951.0 1100.3 1152.0 2123.0
5340 556.0 880.0 1059.2 1095.0 2123.0
5400 556.0 880.0 1057.3 1076.0 2123.0
5460 556.0 880.0 1057.3 1076.0 2123.0
5520 556.0 880.0 1057.3 1076.0 2123.0
5580 556.0 880.0 1057.3 1076.0 2123.0
5640 556.0 880.0 1057.3 1076.0 2123.0
5700 556.0 753.0 1025.1 1076.0 2123.0
5760 556.0 880.0 1059.2 1095.0 2123.0
5820 556.0 880.0 1057.3 1076.0 2123.0
5880 556.0 753.0 1015.9 1095.0 2123.0
5940 556.0 753.0 1014.0 1076.0 2123.0
6000 556.0 753.0 1015.9 1095.0 2123.0
6060 556.0 753.0 1015.9 1095.0 2123.0
6120 556.0 753.0 1009.9 1095.0 2123.0
6180 555.0 753.0 1000.2 1076.0 2123.0
6240 555.0 753.0 1008.1 1095.0 2123.0
6300 555.0 753.0 1008.1 1095.0 2123.0
6360 555.0 753.0 1008.1 1095.0 2123.0
6420 453.0 556.0 935.6 1095.0 1825.0
6480 555.0 753.0 939.9 1020.0 1825.0
6540 555.0 753.0 978.3 1095.0 1825.0
6600 555.0 753.0 978.3 1095.0 1825.0
6660 555.0 753.0 978.3 1095.0 1825.0
6720 555.0 753.0 978.3 1095.0 1825.0
6780 555.0 606.0 938.8 1095.0 1825.0
6840 555.0 606.0 891.2 1095.0 1299.0
6900 555.0 606.0 943.8 1095.0 1825.0
6960 555.0 606.0 920.4 1095.0 1825.0
7020 453.0 556.0 901.1 1095.0 1825.0
7080 453.0 556.0 901.1 1095.0 1825.0
7140 453.0 556.0 901.1 1095.0 1825.0
7200 453.0 556.0 901.1 1095.0 1825.0
7260 453.0 556.0 901.1 1095.0 1825.0
7320 453.0 556.0 901.1 1095.0 1825.0
7380 453.0 556.0 901.1 1095.0 1825.0
7440 453.0 556.0 901.1 1095.0 1825.0
7500 453.0 556.0 901.1 1095.0 1825.0
7560 453.0 556.0 901.1 1095.0 1825.0
7620 453.0 556.0 901.1 1095.0 1825.0
7680 453.0 556.0 901.1 1095.0 1825.0
7740 453.0 556.0 901.1 1095.0 1825.0
7800 453.0 556.0 901.1 1095.0 1825.0
7860 453.0 556.0 866.4 1020.0 1825.0
7920 453.0 556.0 901.1 1095.0 1825.0
7980 453.0 555.0 839.5 1020.0 1825.0
8040 453.0 555.0 839.5 1020.0 1825.0
8100 453.0 555.0 839.5 1020.0 1825.0
8160 453.0 555.0 868.9 1047.0 1825.0
8220 453.0 555.0 868.9 1047.0 1825.0
8280 453.0 555.0 839.5 1020.0 1825.0
8340 453.0 555.0 839.5 1020.0 1825.0
8400 453.0 555.0 774.4 1020.0 1174.0
8460 453.0 555.0 774.4 1020.0 1174.0
8520 453.0 555.0 831.4 1020.0 1744.0
8580 453.0 555.0 831.4 1020.0 1744.0
8640 453.0 555.0 831.4 1020.0 1744.0
8700 453.0 555.0 831.4 1020.0 1744.0
8760 453.0 555.0 792.6 1020.0 1356.0
8820 453.0 555.0 743.8 996.0 1095.0
8880 453.0 555.0 743.8 996.0 1095.0
8940 453.0 555.0 743.8 996.0 1095.0
9000 453.0 555.0 743.8 996.0 1095.0
9060 453.0 555.0 743.8 996.0 1095.0
9120 453.0 555.0 743.8 996.0 1095.0
9180 453.0 555.0 743.8 996.0 1095.0
9240 453.0 555.0 759.1 996.0 1173.0
9300 453.0 555.0 759.1 996.0 1173.0
9360 453.0 555.0 759.1 996.0 1173.0
9420 453.0 555.0 743.8 996.0 1095.0
9480 453.0 555.0 743.8 996.0 1095.0
9540 453.0 555.0 743.8 996.0 1095.0
9600 453.0 548.0 743.0 996.0 1095.0
9660 453.0 548.0 743.0 996.0 1095.0
9720 453.0 548.0 743.0 996.0 1095.0
9780 453.0 548.0 743.0 996.0 1095.0
9840 453.0 548.0 743.0 996.0 1095.0
9900 453.0 548.0 743.0 996.0 1095.0
9960 453.0 548.0 743.0 996.0 1095.0
10020 453.0 548.0 743.0 996.0 1095.0
10080 453.0 548.0 743.0 996.0 1095.0
10140 453.0 548.0 743.0 996.0 1095.0
10200 453.0 548.0 728.6 876.0 1095.0
10260 453.0 548.0 728.6 876.0 1095.0
10320 453.0 548.0 728.6 876.0 1095.0
10380 453.0 548.0 728.6 876.0 1095.0
10440 453.0 548.0 728.6 876.0 1095.0
10500 453.0 548.0 728.6 876.0 1095.0
10560 453.0 548.0 728.6 876.0 1095.0
10620 453.0 548.0 738.6 968.0 1095.0
10680 453.0 548.0 738.6 968.0 1095.0
10740 453.0 548.0 707.4 876.0 1095.0
10800 453.0 548.0 707.4 876.0 1095.0
10860 453.0 548.0 738.6 968.0 1095.0
10920 453.0 548.0 738.6 968.0 1095.0
10980 453.0 548.0 738.6 968.0 1095.0
11040 397.0 536.0 690.7 968.0 1095.0
11100 397.0 536.0 690.7 968.0 1095.0
11160 397.0 536.0 690.7 968.0 1095.0
11220 397.0 536.0 680.7 868.0 1095.0
11280 397.0 536.0 680.7 868.0 1095.0
11340 397.0 536.0 680.7 868.0 1095.0
11400 397.0 536.0 649.6 784.0 996.0
11460 397.0 536.0 661.7 868.0 996.0
11520 397.0 536.0 649.6 784.0 996.0
11580 397.0 536.0 680.7 868.0 1095.0
11640 397.0 536.0 680.7 868.0 1095.0
11700 397.0 536.0 680.7 868.0 1095.0
11760 397.0 536.0 680.7 868.0 1095.0
11820 397.0 536.0 680.7 868.0 1095.0
11880 397.0 536.0 680.7 868.0 1095.0
11940 397.0 536.0 680.7 868.0 1095.0
12000 397.0 536.0 684.9 868.0 1095.0
12060 397.0 536.0 680.7 868.0 1095.0
12120 397.0 536.0 680.7 868.0 1095.0
12180 397.0 536.0 680.7 868.0 1095.0
12240 397.0 536.0 680.7 868.0 1095.0
12300 397.0 536.0 680.7 868.0 1095.0
12360 397.0 536.0 680.7 868.0 1095.0
12420 397.0 536.0 674.7 868.0 1095.0
12480 397.0 536.0 674.7 868.0 1095.0
12540 397.0 536.0 674.7 868.0 1095.0
12600 397.0 536.0 674.7 868.0 1095.0
12660 397.0 536.0 655.0 753.0 1095.0
12720 397.0 536.0 674.8 869.0 1095.0
12780 397.0 536.0 675.6 869.0 1095.0
12840 397.0 536.0 675.5 868.0 1095.0
12900 397.0 536.0 675.5 868.0 1095.0
12960 397.0 536.0 675.5 868.0 1095.0
13020 397.0 536.0 675.5 868.0 1095.0
13080 397.0 536.0 675.5 868.0 1095.0
13140 397.0 536.0 675.2 865.0 1095.0
13200 397.0 536.0 676.5 865.0 1095.0
13260 397.0 536.0 632.0 753.0 1095.0
13320 397.0 536.0 632.0 753.0 1095.0
13380 397.0 536.0 632.0 753.0 1095.0
13440 397.0 536.0 632.0 753.0 1095.0
13500 397.0 536.0 632.0 753.0 1095.0
13560 397.0 536.0 632.0 753.0 1095.0
13620 397.0 536.0 632.0 753.0 1095.0
13680 397.0 536.0 632.0 753.0 1095.0
13740 397.0 536.0 632.0 753.0 1095.0
13800 397.0 536.0 632.0 753.0 1095.0
13860 397.0 536.0 632.0 753.0 1095.0
13920 397.0 536.0 632.0 753.0 1095.0
13980 397.0 536.0 627.3 753.0 1095.0
14040 397.0 536.0 632.0 753.0 1095.0
14100 397.0 493.0 571.8 564.0 865.0
14160 397.0 493.0 571.8 564.0 865.0
14220 397.0 493.0 571.8 564.0 865.0
14280 397.0 493.0 571.8 564.0 865.0
14340 397.0 453.0 562.6 564.0 865.0
14400 397.0 453.0 562.6 564.0 865.0
14460 397.0 453.0 562.6 564.0 865.0
14520 397.0 453.0 562.6 564.0 865.0
14580 397.0 453.0 562.6 564.0 865.0
14640 397.0 453.0 562.6 564.0 865.0
14700 397.0 453.0 562.6 564.0 865.0
14760 397.0 453.0 562.6 564.0 865.0
14820 397.0 453.0 562.6 564.0 865.0
14880 397.0 453.0 562.6 564.0 865.0
14940 397.0 453.0 562.6 564.0 865.0
15000 397.0 453.0 562.6 564.0 865.0
15060 397.0 453.0 562.6 564.0 865.0
15120 397.0 453.0 562.6 564.0 865.0
15180 397.0 453.0 550.1 564.0 865.0
15240 397.0 453.0 550.1 564.0 865.0
15300 397.0 453.0 557.6 564.0 865.0
15360 397.0 453.0 557.6 564.0 865.0
15420 397.0 453.0 557.6 564.0 865.0
15480 397.0 453.0 557.6 564.0 865.0
15540 397.0 453.0 557.6 564.0 865.0
15600 397.0 453.0 557.6 564.0 865.0
15660 397.0 453.0 557.6 564.0 865.0
15720 397.0 453.0 557.6 564.0 865.0
15780 397.0 453.0 557.6 564.0 865.0
15840 397.0 453.0 557.6 564.0 865.0
15900 397.0 453.0 557.6 564.0 865.0
15960 397.0 453.0 557.6 564.0 865.0
16020 397.0 453.0 557.6 564.0 865.0
16080 397.0 453.0 557.6 564.0 865.0
16140 397.0 453.0 557.6 564.0 865.0
16200 397.0 453.0 557.6 564.0 865.0
16260 397.0 453.0 557.6 564.0 865.0
16320 397.0 453.0 557.6 564.0 865.0
16380 397.0 453.0 555.4 564.0 843.0
16440 397.0 453.0 552.9 564.0 865.0
16500 397.0 453.0 552.9 564.0 865.0
16560 397.0 453.0 552.9 564.0 865.0
16620 397.0 453.0 552.9 564.0 865.0
16680 397.0 453.0 552.9 564.0 865.0
16740 397.0 453.0 552.9 564.0 865.0
16800 397.0 453.0 552.9 564.0 865.0
16860 397.0 453.0 552.9 564.0 865.0
16920 397.0 453.0 552.9 564.0 865.0
16980 397.0 453.0 552.9 564.0 865.0
17040 397.0 453.0 512.6 556.0 703.0
17100 397.0 453.0 534.0 564.0 703.0
17160 397.0 453.0 552.9 564.0 865.0
17220 397.0 453.0 557.6 564.0 865.0
17280 397.0 453.0 557.6 564.0 865.0
17340 397.0 453.0 557.6 564.0 865.0
17400 397.0 453.0 557.6 564.0 865.0
17460 397.0 453.0 583.5 564.0 962.0
17520 397.0 453.0 557.6 564.0 865.0
17580 397.0 453.0 557.6 564.0 865.0
17640 397.0 453.0 557.6 564.0 865.0
17700 397.0 453.0 557.6 564.0 865.0
17760 397.0 453.0 557.6 564.0 865.0
17820 397.0 453.0 557.6 564.0 865.0
17880 397.0 453.0 557.6 564.0 865.0
17940 397.0 453.0 557.6 564.0 865.0
18000 397.0 453.0 557.6 564.0 865.0
18060 397.0 453.0 557.6 564.0 865.0
18120 397.0 453.0 557.6 564.0 865.0
18180 397.0 453.0 557.6 564.0 865.0
18240 397.0 453.0 557.6 564.0 865.0
18300 397.0 453.0 557.6 564.0 865.0
18360 397.0 453.0 557.6 564.0 865.0
18420 397.0 453.0 557.6 564.0 865.0
18480 397.0 453.0 557.6 564.0 865.0
18540 397.0 453.0 557.6 564.0 865.0
18600 397.0 453.0 557.6 564.0 865.0
18660 397.0 453.0 557.6 564.0 865.0
18720 397.0 453.0 557.6 564.0 865.0
18780 397.0 453.0 557.6 564.0 865.0
18840 397.0 453.0 557.6 564.0 865.0
18900 397.0 453.0 557.6 564.0 865.0
18960 397.0 453.0 557.6 564.0 865.0
19020 397.0 453.0 557.6 564.0 865.0
19080 397.0 453.0 557.6 564.0 865.0
19140 397.0 453.0 557.6 564.0 865.0
19200 397.0 453.0 557.6 564.0 865.0
19260 397.0 453.0 557.6 564.0 865.0
19320 397.0 453.0 557.6 564.0 865.0
19380 397.0 453.0 557.6 564.0 865.0
19440 397.0 453.0 557.6 564.0 865.0
19500 397.0 453.0 557.6 564.0 865.0
19560 397.0 453.0 557.6 564.0 865.0
19620 397.0 453.0 557.6 564.0 865.0
19680 397.0 453.0 557.6 564.0 865.0
19740 397.0 453.0 557.6 564.0 865.0
19800 397.0 453.0 557.6 564.0 865.0
19860 397.0 453.0 557.6 564.0 865.0
19920 397.0 453.0 557.6 564.0 865.0
19980 397.0 453.0 557.6 564.0 865.0
20040 397.0 453.0 557.6 564.0 865.0
20100 397.0 453.0 557.6 564.0 865.0
20160 397.0 453.0 557.6 564.0 865.0
20220 397.0 453.0 557.6 564.0 865.0
20280 397.0 453.0 566.3 643.0 865.0
20340 397.0 453.0 566.3 643.0 865.0
20400 397.0 453.0 566.3 643.0 865.0
20460 397.0 453.0 566.3 643.0 865.0
20520 397.0 453.0 566.3 643.0 865.0
20580 397.0 453.0 566.3 643.0 865.0
20640 397.0 453.0 566.3 643.0 865.0
20700 397.0 453.0 566.3 643.0 865.0
20760 397.0 453.0 557.6 564.0 865.0
20820 397.0 453.0 557.6 564.0 865.0
20880 397.0 453.0 557.6 564.0 865.0
20940 397.0 453.0 557.6 564.0 865.0
21000 397.0 453.0 557.6 564.0 865.0
21060 397.0 453.0 557.6 564.0 865.0
21120 397.0 453.0 557.6 564.0 865.0
21180 397.0 453.0 557.6 564.0 865.0
21240 397.0 453.0 557.6 564.0 865.0
21300 397.0 453.0 557.6 564.0 865.0
21360 397.0 453.0 557.6 564.0 865.0
21420 397.0 453.0 557.6 564.0 865.0
21480 397.0 453.0 557.6 564.0 865.0
21540 397.0 453.0 557.6 564.0 865.0
21600 397.0 453.0 557.6 564.0 865.0
21660 397.0 453.0 557.6 564.0 865.0
21720 397.0 453.0 557.6 564.0 865.0
21780 397.0 453.0 557.6 564.0 865.0
21840 397.0 453.0 557.6 564.0 865.0
21900 397.0 453.0 557.6 564.0 865.0
21960 397.0 453.0 557.6 564.0 865.0
22020 397.0 453.0 557.6 564.0 865.0
22080 397.0 453.0 557.6 564.0 865.0
22140 397.0 453.0 557.6 564.0 865.0
22200 397.0 453.0 557.6 564.0 865.0
22260 397.0 453.0 557.6 564.0 865.0
22320 397.0 453.0 557.6 564.0 865.0
22380 397.0 453.0 557.6 564.0 865.0
22440 397.0 453.0 557.6 564.0 865.0
22500 397.0 453.0 557.6 564.0 865.0
22560 397.0 453.0 557.6 564.0 865.0
22620 397.0 453.0 557.6 564.0 865.0
22680 397.0 453.0 557.6 564.0 865.0
22740 397.0 453.0 557.6 564.0 865.0
22800 397.0 453.0 557.6 564.0 865.0
22860 397.0 453.0 557.6 564.0 865.0
22920 397.0 453.0 557.6 564.0 865.0
22980 397.0 453.0 557.6 564.0 865.0
23040 397.0 453.0 557.6 564.0 865.0
23100 397.0 453.0 557.6 564.0 865.0
23160 397.0 453.0 557.6 564.0 865.0
23220 397.0 453.0 557.6 564.0 865.0
23280 397.0 453.0 557.6 564.0 865.0
23340 397.0 453.0 557.6 564.0 865.0
23400 397.0 453.0 557.6 564.0 865.0
23460 397.0 453.0 557.6 564.0 865.0
23520 397.0 453.0 557.6 564.0 865.0
23580 397.0 453.0 557.6 564.0 865.0
23640 397.0 453.0 557.6 564.0 865.0
23700 397.0 453.0 557.6 564.0 865.0
23760 397.0 453.0 557.6 564.0 865.0
23820 397.0 453.0 557.6 564.0 865.0
23880 397.0 453.0 557.6 564.0 865.0
23940 397.0 453.0 557.6 564.0 865.0
24000 397.0 453.0 557.6 564.0 865.0
24060 397.0 453.0 557.6 564.0 865.0
24120 397.0 453.0 557.6 564.0 865.0
24180 397.0 453.0 557.6 564.0 865.0
24240 397.0 453.0 557.6 564.0 865.0
24300 397.0 453.0 557.6 564.0 865.0
24360 397.0 453.0 557.6 564.0 865.0
24420 397.0 453.0 533.7 564.0 703.0
24480 397.0 453.0 533.7 564.0 703.0
24540 397.0 453.0 533.7 564.0 703.0
24600 397.0 453.0 533.7 564.0 703.0
24660 397.0 453.0 533.7 564.0 703.0
24720 397.0 453.0 533.7 564.0 703.0
24780 397.0 453.0 533.7 564.0 703.0
24840 397.0 453.0 533.7 564.0 703.0
24900 336.0 401.0 504.7 556.0 703.0
24960 336.0 401.0 504.7 556.0 703.0
25020 336.0 401.0 504.7 556.0 703.0
25080 336.0 401.0 504.7 556.0 703.0
25140 336.0 401.0 504.7 556.0 703.0
25200 336.0 401.0 504.7 556.0 703.0
25260 336.0 401.0 504.7 556.0 703.0
25320 336.0 401.0 504.7 556.0 703.0
25380 336.0 401.0 504.7 556.0 703.0
25440 336.0 401.0 504.7 556.0 703.0
25500 336.0 401.0 504.7 556.0 703.0
25560 336.0 401.0 504.7 556.0 703.0
25620 336.0 401.0 504.7 556.0 703.0
25680 336.0 401.0 504.7 556.0 703.0
25740 336.0 401.0 504.7 556.0 703.0
25800 336.0 401.0 504.7 556.0 703.0
25860 336.0 401.0 504.7 556.0 703.0
25920 336.0 401.0 504.7 556.0 703.0
25980 336.0 401.0 504.7 556.0 703.0
26040 336.0 401.0 504.7 556.0 703.0
26100 336.0 401.0 504.7 556.0 703.0
26160 336.0 401.0 504.7 556.0 703.0
26220 336.0 401.0 504.7 556.0 703.0
26280 336.0 401.0 504.7 556.0 703.0
26340 336.0 401.0 504.7 556.0 703.0
26400 336.0 401.0 504.7 556.0 703.0
26460 336.0 401.0 504.7 556.0 703.0
26520 336.0 401.0 504.7 556.0 703.0
26580 336.0 401.0 504.7 556.0 703.0
26640 336.0 401.0 504.7 556.0 703.0
26700 336.0 401.0 504.7 556.0 703.0
26760 336.0 401.0 504.7 556.0 703.0
26820 336.0 401.0 504.7 556.0 703.0
26880 336.0 401.0 504.7 556.0 703.0
26940 336.0 401.0 504.7 556.0 703.0
27000 336.0 401.0 504.7 556.0 703.0
27060 336.0 401.0 504.7 556.0 703.0
